CONTCAR\(11)                            
   1.00000000000000     
     2.9983094700835378    0.0000000000000000   -0.0002185872412004
     0.0000000000000000    3.0051649134358915    0.0000000000000000
    -2.9853979823105479    0.0000000000000000    9.0434161398991613
Ca S
     2     8
Direct
 -0.0000000000000000 -0.0000000000000000  0.5000000000000000
  0.5000000000000000  0.5000000000000000  0.5000000000000000
  0.8090470018244268  0.5000000000000000  0.3073576055954471
  0.1909530131755708  0.5000000000000000  0.6926423654045539
  0.3090470018244269  0.0000000000000000  0.3073576055954471
  0.6909529981755732  0.0000000000000000  0.6926423654045539
  0.1044216633623280  0.5000000000000000  0.1051729863352104
  0.8955783516376696  0.5000000000000000  0.8948270206647867
  0.6044216483623304 -0.0000000000000000  0.1051729863352104
  0.3955783516376696  0.0000000000000000  0.8948270206647867
 
  0.00000000E+00  0.00000000E+00  0.00000000E+00
  0.00000000E+00  0.00000000E+00  0.00000000E+00
  0.00000000E+00  0.00000000E+00  0.00000000E+00
  0.00000000E+00  0.00000000E+00  0.00000000E+00
  0.00000000E+00  0.00000000E+00  0.00000000E+00
  0.00000000E+00  0.00000000E+00  0.00000000E+00
  0.00000000E+00  0.00000000E+00  0.00000000E+00
  0.00000000E+00  0.00000000E+00  0.00000000E+00
  0.00000000E+00  0.00000000E+00  0.00000000E+00
  0.00000000E+00  0.00000000E+00  0.00000000E+00
